c 
p cnf 123 206
8 17 21 0
-21 -20 22 0
-22 4 -6 0
-4 -1 23 0
-23 5 -2 0
19 4 24 0
19 4 -24 0
3 -15 25 0
-25 4 26 0
-26 -19 16 0
2 19 14 0
19 27 28 0
19 27 -28 0
19 -27 28 0
19 -27 -28 0
5 7 29 0
-29 -3 30 0
-30 -9 1 0
-12 31 32 0
-12 31 -32 0
-12 -31 32 0
-12 -31 -32 0
13 10 33 0
-33 7 34 0
-34 9 19 0
19 14 -6 0
-10 -17 35 0
-35 -14 15 0
-18 8 36 0
-36 -10 4 0
-2 37 38 0
-2 37 -38 0
-2 -37 38 0
-2 -37 -38 0
8 14 2 0
-5 -11 17 0
-1 39 40 0
-1 39 -40 0
-1 -39 40 0
-1 -39 -40 0
-6 -11 41 0
-41 9 42 0
-42 -1 -20 0
13 18 43 0
-43 -17 -4 0
-11 44 45 0
-11 44 -45 0
-11 -44 45 0
-11 -44 -45 0
10 -7 46 0
10 -7 -46 0
-3 -11 47 0
-3 -11 -47 0
-3 48 49 0
-3 48 -49 0
-3 -48 49 0
-3 -48 -49 0
2 16 50 0
-50 -1 5 0
10 51 52 0
10 51 -52 0
10 -51 52 0
10 -51 -52 0
19 53 54 0
19 53 -54 0
19 -53 54 0
19 -53 -54 0
-19 55 56 0
-19 55 -56 0
-19 -55 56 0
-19 -55 -56 0
13 -11 20 0
13 8 57 0
-57 15 58 0
-58 11 -10 0
11 4 59 0
-59 6 60 0
-60 -7 14 0
18 10 61 0
-61 -8 -1 0
7 12 62 0
-62 -15 63 0
-63 14 -11 0
-8 64 65 0
-8 64 -65 0
-8 -64 65 0
-8 -64 -65 0
20 66 67 0
20 66 -67 0
20 -66 67 0
20 -66 -67 0
20 68 69 0
20 68 -69 0
20 -68 69 0
20 -68 -69 0
7 -16 70 0
7 -16 -70 0
5 10 -6 0
20 -6 71 0
20 -6 -71 0
-17 72 73 0
-17 72 -73 0
-17 -72 73 0
-17 -72 -73 0
13 74 75 0
13 74 -75 0
13 -74 75 0
13 -74 -75 0
-6 76 77 0
-6 76 -77 0
-6 -76 77 0
-6 -76 -77 0
-1 78 79 0
-1 78 -79 0
-1 -78 79 0
-1 -78 -79 0
17 7 -20 0
14 80 81 0
14 80 -81 0
14 -80 81 0
14 -80 -81 0
15 82 83 0
15 82 -83 0
15 -82 83 0
15 -82 -83 0
-10 11 17 0
-12 4 84 0
-12 4 -84 0
1 85 86 0
1 85 -86 0
1 -85 86 0
1 -85 -86 0
-7 1 87 0
-87 -19 10 0
8 20 88 0
8 20 -88 0
-16 -11 89 0
-89 -7 90 0
-90 18 -12 0
11 91 92 0
11 91 -92 0
11 -91 92 0
11 -91 -92 0
-11 2 93 0
-11 2 -93 0
-17 -20 -14 0
1 94 95 0
1 94 -95 0
1 -94 95 0
1 -94 -95 0
-1 15 6 0
6 -5 96 0
-96 -4 97 0
-97 8 -16 0
-19 -4 98 0
-98 14 -10 0
12 -3 -5 0
8 16 -5 0
-18 -4 99 0
-99 -13 -9 0
-2 15 100 0
-100 -8 101 0
-101 17 18 0
15 3 102 0
-102 14 103 0
-103 -11 -16 0
-13 104 105 0
-13 104 -105 0
-13 -104 105 0
-13 -104 -105 0
3 12 106 0
3 12 -106 0
-16 20 107 0
-16 20 -107 0
15 -14 108 0
-108 18 109 0
-109 6 -16 0
-18 -1 110 0
-110 -3 111 0
-111 -12 -13 0
12 10 112 0
12 10 -112 0
20 6 113 0
20 6 -113 0
5 -13 -12 0
15 13 4 0
-1 -15 114 0
-114 -19 7 0
-12 15 115 0
-115 -16 -5 0
-16 116 117 0
-16 116 -117 0
-16 -116 117 0
-16 -116 -117 0
-5 -10 118 0
-5 -10 -118 0
-6 -5 119 0
-119 -3 -14 0
12 3 120 0
12 3 -120 0
-7 -10 121 0
-121 13 -19 0
5 -11 122 0
-122 -10 18 0
-12 -9 123 0
-123 -17 7 0
